# Solution for model Transporte com Transbordo
# Objective value = 3.4377867316493916e+03
X_1_4_9 0
X_1_5_9 0
X_2_4_9 0
X_2_5_9 1
X_3_4_9 0
X_3_5_9 0
X_4_6_9 0
X_4_7_9 0
X_4_8_9 0
X_5_6_9 0
X_5_7_9 1
X_5_8_9 0
X_1_6_9 0
X_1_7_9 0
X_1_8_9 0
X_2_6_9 0
X_2_7_9 0
X_2_8_9 0
X_3_6_9 0
X_3_7_9 0
X_3_8_9 0
